Cost: 1444
0-2-4-5-7-6-35-0
0-38-29-28-27-20-13-36-22-23-24-25-26-30-33-0
0-3-15-8-37-9-10-11-14-17-18-1-0
Cost: 1444
0-2-4-5-7-6-35-0
0-38-29-28-27-20-13-36-22-23-24-25-26-30-33-0
0-3-15-8-37-9-10-11-14-17-18-1-0
Cost: 1444
0-2-4-5-7-6-35-0
0-38-29-28-27-20-13-36-22-23-24-25-26-30-33-0
0-3-15-8-37-9-10-11-14-17-18-1-0
Cost: 1444
0-2-4-5-7-6-35-0
0-38-29-28-27-20-13-36-22-23-24-25-26-30-33-0
0-3-15-8-37-9-10-11-14-17-18-1-0
Cost: 1444
0-2-4-5-7-6-35-0
0-38-29-28-27-20-13-36-22-23-24-25-26-30-33-0
0-3-15-8-37-9-10-11-14-17-18-1-0
Cost: 1444
0-2-4-5-7-6-35-0
0-38-29-28-27-20-13-36-22-23-24-25-26-30-33-0
0-3-15-8-37-9-10-11-14-17-18-1-0
Cost: 1444
0-2-4-5-7-6-35-0
0-38-29-28-27-20-13-36-22-23-24-25-26-30-33-0
0-3-15-8-37-9-10-11-14-17-18-1-0
Cost: 1444
0-2-4-5-7-6-35-0
0-38-29-28-27-20-13-36-22-23-24-25-26-30-33-0
0-3-15-8-37-9-10-11-14-17-18-1-0
Cost: 1444
0-2-4-5-7-6-35-0
0-38-29-28-27-20-13-36-22-23-24-25-26-30-33-0
0-3-15-8-37-9-10-11-14-17-18-1-0
Cost: 1444
0-2-4-5-7-6-35-0
0-38-29-28-27-20-13-36-22-23-24-25-26-30-33-0
0-3-15-8-37-9-10-11-14-17-18-1-0
Cost: 1444
0-2-4-5-7-6-35-0
0-38-29-28-27-20-13-36-22-23-24-25-26-30-33-0
0-3-15-8-37-9-10-11-14-17-18-1-0
Cost: 1444
0-2-4-5-7-6-35-0
0-3-15-8-37-9-10-11-14-17-18-1-0
0-38-29-28-27-20-13-36-22-23-24-25-26-30-33-0
Cost: 1444
0-2-4-5-7-6-35-0
0-3-15-8-37-9-10-11-14-17-18-1-0
0-38-29-28-27-20-13-36-22-23-24-25-26-30-33-0
Cost: 1444
0-2-4-5-7-6-35-0
0-3-15-8-37-9-10-11-14-17-18-1-0
0-38-29-28-27-20-13-36-22-23-24-25-26-30-33-0
Cost: 1444
0-2-4-5-7-6-35-0
0-3-15-8-37-9-10-11-14-17-18-1-0
0-38-29-28-27-20-13-36-22-23-24-25-26-30-33-0
Cost: 1444
0-2-4-5-7-6-35-0
0-3-15-8-37-9-10-11-14-17-18-1-0
0-38-29-28-27-20-13-36-22-23-24-25-26-30-33-0
Cost: 1444
0-2-4-5-7-6-35-0
0-3-15-8-37-9-10-11-14-17-18-1-0
0-38-29-28-27-20-13-36-22-23-24-25-26-30-33-0
Cost: 1444
0-38-29-28-27-20-13-36-22-23-24-25-26-30-33-0
0-3-15-8-37-9-10-11-14-17-18-1-0
0-2-4-5-7-6-35-0
Cost: 1444
0-2-4-5-7-6-35-0
0-3-15-8-37-9-10-11-14-17-18-1-0
0-38-29-28-27-20-13-36-22-23-24-25-26-30-33-0
Cost: 1444
0-2-4-5-7-6-35-0
0-3-15-8-37-9-10-11-14-17-18-1-0
0-38-29-28-27-20-13-36-22-23-24-25-26-30-33-0
Cost: 1444
0-2-4-5-7-6-35-0
0-3-15-8-37-9-10-11-14-17-18-1-0
0-38-29-28-27-20-13-36-22-23-24-25-26-30-33-0
Cost: 1444
0-2-4-5-7-6-35-0
0-3-15-8-37-9-10-11-14-17-18-1-0
0-38-29-28-27-20-13-36-22-23-24-25-26-30-33-0
Cost: 1444
0-2-4-5-7-6-35-0
0-3-15-8-37-9-10-11-14-17-18-1-0
0-38-29-28-27-20-13-36-22-23-24-25-26-30-33-0
Cost: 1444
0-2-4-5-7-6-35-0
0-3-15-8-37-9-10-11-14-17-18-1-0
0-38-29-28-27-20-13-36-22-23-24-25-26-30-33-0
Cost: 1444
0-2-4-5-7-6-35-0
0-3-15-8-37-9-10-11-14-17-18-1-0
0-38-29-28-27-20-13-36-22-23-24-25-26-30-33-0
Cost: 1444
0-3-15-8-37-9-10-11-14-17-19-1-0
0-38-29-28-27-13-36-21-22-23-24-25-26-30-33-0
0-2-4-5-7-6-35-0
Cost: 1444
0-2-4-5-7-6-35-0
0-3-15-8-37-9-10-11-14-17-18-1-0
0-38-29-28-27-20-13-36-22-23-24-25-26-30-33-0
Cost: 1444
0-2-4-5-7-6-35-0
0-3-15-8-37-9-10-11-14-17-18-1-0
0-38-29-28-27-20-13-36-22-23-24-25-26-30-33-0
Cost: 1444
0-2-4-5-7-6-35-0
0-3-15-8-37-9-10-11-14-17-18-1-0
0-38-29-28-27-20-13-36-22-23-24-25-26-30-33-0
Cost: 1444
0-2-4-5-7-6-35-0
0-3-15-8-37-9-10-11-14-17-18-1-0
0-38-29-28-27-20-13-36-22-23-24-25-26-30-33-0
Cost: 1444
0-4-5-7-6-35-0
0-2-38-29-28-27-13-36-21-22-23-24-25-26-30-33-0
0-3-15-8-37-9-10-11-14-17-18-1-0
Cost: 1444
0-4-5-7-6-35-0
0-2-38-29-28-27-20-13-36-22-23-24-25-26-30-33-0
0-3-15-8-37-9-10-11-14-17-18-1-0
Cost: 1444
0-2-38-29-28-27-20-13-36-22-23-24-25-26-30-33-0
0-3-15-8-37-9-10-11-14-17-19-1-0
0-4-5-7-6-35-0
Cost: 1444
0-2-4-5-7-6-35-0
0-3-15-8-37-9-10-11-14-17-19-1-0
0-38-29-28-27-20-13-36-22-23-24-25-26-30-33-0
Cost: 1444
0-4-5-7-6-35-0
0-3-15-8-37-9-10-11-14-17-19-1-0
0-2-38-29-28-27-20-13-36-22-23-24-25-26-30-33-0
